# Solution for model ShiftAssignment
# Objective value = 0
B0(43) 0
B1(43) 1
B2(43) 0
B3(43) 0
B4(43) 1
B5(43) 0
B6(43) 0
B7(43) 1
B8(43) 0
B9(43) 0
B10(43) 0
B11(43) 0
B12(43) 1
B13(43) 0
B14(43) 0
B15(43) 0
B16(43) 0
B17(43) 0
B18(43) 0
B19(43) 1
B20(43) 0
B21(43) 0
B22(43) 1
B23(43) 1
B24(43) 0
B25(43) 0
B26(43) 0
B27(43) 0
B28(43) 0
B29(43) 0
B30(43) 0
B31(43) 0
B32(43) 0
B33(43) 0
B34(43) 0
B35(43) 0
B36(43) 1
B37(43) 0
B38(43) 0
B39(43) 0
B40(43) 0
B41(43) 0
B42(43) 0
B43(43) 0
B44(43) 0
B45(43) 0
B46(43) 0
B47(43) 1
B48(43) 0
B49(43) 0
B50(43) 1
B51(43) 1
B52(43) 0
B53(43) 1
B54(43) 0
B55(43) 0
B56(43) 0
B57(43) 0
B58(43) 0
B59(43) 0
B60(43) 0
B61(43) 0
B62(43) 0
B63(43) 1
B64(43) 0
B65(43) 0
B66(43) 0
B67(43) 0
B68(43) 0
B69(43) 0
B70(43) 0
B71(43) 0
B72(43) 1
B73(43) 1
B74(43) 0
B75(43) 0
B76(43) 0
B77(43) 0
B78(43) 1
B79(43) 0
B80(43) 1
B81(43) 0
B82(43) 0
B83(43) 0
B84(43) 0
B85(43) 0
B86(43) 0
B87(43) 0
B88(43) 1
B89(43) 0
B90(43) 0
B91(43) 1
B92(43) 0
B93(43) 0
B94(43) 0
B95(43) 0
B96(43) 0
B97(43) 0
B98(43) 1
B99(43) 0
B100(43) 1
B101(43) 1
B102(43) 0
B103(43) 0
B104(43) 0
B105(43) 0
B106(43) 0
B107(43) 1
B108(43) 0
B109(43) 1
B110(43) 0
B111(43) 0
B112(43) 0
B113(43) 0
B114(43) 0
B115(43) 0
B116(43) 0
B117(43) 1
B118(43) 0
B119(43) 0
B120(43) 0
B121(43) 1
B122(43) 0
B123(43) 0
B124(43) 1
B125(43) 0
B126(43) 0
B127(43) 0
B128(43) 0
B129(43) 0
B130(43) 0
B131(43) 0
B132(43) 0
B133(43) 0
B134(43) 0
B135(43) 0
B136(43) 1
B137(43) 0
B138(43) 0
B139(43) 0
B140(43) 1
B141(43) 0
B142(43) 0
B143(43) 0
B144(43) 1
B145(43) 0
B146(43) 0
B147(43) 0
B148(43) 0
B149(43) 0
B150(43) 1
B151(43) 0
B152(43) 0
B153(43) 1
B154(43) 0
B155(43) 1
B156(43) 0
B157(43) 0
B158(43) 0
B159(43) 0
B160(43) 0
B161(43) 0
B162(43) 0
B163(43) 0
B164(43) 0
B165(43) 0
B166(43) 0
B167(43) 0
B168(43) 0
B169(43) 0
B170(43) 0
B171(43) 0
B172(43) 0
B173(43) 0
B174(43) 0
B175(43) 1
B176(43) 0
B177(43) 0
B178(43) 0
B179(43) 0
B180(43) 0
B181(43) 0
B182(43) 0
B183(43) 1
B184(43) 0
B185(43) 1
B186(43) 0
B187(43) 0
B188(43) 0
B189(43) 1
B190(43) 0
B191(43) 0
B192(43) 0
B193(43) 0
B194(43) 1
B195(43) 0
B196(43) 0
B197(43) 0
B198(43) 1
B199(43) 1
B200(43) 1
B201(43) 0
B202(43) 0
B203(43) 0
B204(43) 0
B205(43) 0
B206(43) 0
B207(43) 0
B208(43) 0
B209(43) 0
B210(43) 1
B211(43) 0
B212(43) 0
B213(43) 0
B214(43) 0
B215(43) 0
B216(43) 0
B217(43) 0
B218(43) 0
B219(43) 0
B220(43) 0
B221(43) 0
B222(43) 0
B223(43) 1
B224(43) 0
B225(43) 0
B226(43) 0
B227(43) 0
B228(43) 1
B229(43) 1
B230(43) 1
B231(43) 0
B232(43) 0
B233(43) 0
B234(43) 1
B235(43) 0
B236(43) 0
B237(43) 1
B238(43) 0
B239(43) 0
B240(43) 0
B241(43) 0
B242(43) 0
B243(43) 0
B244(43) 1
B245(43) 0
B246(43) 0
B247(43) 0
B248(43) 0
B249(43) 1
B250(43) 0
B251(43) 1
B252(43) 0
B253(43) 1
B254(43) 1
B255(43) 0
B256(43) 0
B257(43) 0
B258(43) 0
B259(43) 0
B260(43) 0
B261(43) 0
B262(43) 0
B263(43) 1
B264(43) 1
B265(43) 0
B266(43) 0
B267(43) 0
B268(43) 0
B269(43) 0
B270(43) 0
B271(43) 0
B272(43) 1
C273(1) 0
C274(1) 0
C275(1) 0
C276(1) 0
C277(1) 0
C278(1) 0
C279(1) 0
C280(1) 0
C281(1) 0
C282(1) 0
C283(1) 0
C284(1) 0
C285(1) 0
C286(1) 0
C287(1) 0
C288(1) 0
C289(1) 0
C290(1) 0
C291(1) 0
C292(1) 0
C293(1) 0
C294(2) 0
C295(2) 0
C296(2) 0
C297(2) 0
C298(2) 0
C299(2) 0
C300(2) 0
C301(2) 0
C302(2) 0
C303(2) 0
C304(2) 0
C305(2) 0
C306(2) 0
